data;
set K:= K1 K2 K3 K4 K5 K6 K7 K8 K9 K10 ;

set F:= F1 F2 F3 ;

set Q:= Q1 Q2 ;

param T:= 45;
param V: 
	K1  K2  K3  K4  K5  K6  K7  K8  K9  K10 :=
Q1	1   1   1   1   1   1   0   0   0   0   
Q2	0   0   0   0   0   0   1   1   1   1   
; # if resorce k is of type q

param TF:= 
K1 6
K2 6
K3 6
K4 6
K5 6
K6 6
K7 12
K8 12
K9 12
K10 12
; # number of continuous time slots resource can fly

param TR:= 
K1 2
K2 2
K3 2
K4 2
K5 2
K6 2
K7 4
K8 4
K9 4
K10 4
; #  number of continuous time slots resource k needs to rest between flights

param P:= 
K1 36
K2 36
K3 36
K4 36
K5 36
K6 36
K7 36
K8 36
K9 36
K10 36
; #  number of continuous time slots a pilot can be present including rest times for resource k 

param N:= 
K1 4
K2 4
K3 4
K4 4
K5 4
K6 4
K7 2
K8 2
K9 2
K10 2
; # max number of flights resource k can fly in the total time period

param A: 
	K1  K2  K3  K4  K5  K6  K7  K8  K9  K10 :=
1	1   1   1   1   1   1   1   1   1   1   
2	1   1   1   1   1   1   1   1   1   1   
3	1   1   1   1   1   1   1   1   1   1   
4	1   1   1   1   1   1   1   1   1   1   
5	1   1   1   1   1   1   1   1   1   1   
6	1   1   1   1   1   1   1   1   1   1   
7	1   1   1   1   1   1   1   1   1   1   
8	1   1   1   1   1   1   1   1   1   1   
9	1   1   1   1   1   1   1   1   1   1   
10	1   1   1   1   1   1   1   1   1   1   
11	1   1   1   1   1   1   1   1   1   1   
12	1   1   1   1   1   1   1   1   1   1   
13	1   1   1   1   1   1   1   1   1   1   
14	1   1   1   1   1   1   1   1   1   1   
15	1   1   1   1   1   1   1   1   1   1   
16	1   1   1   1   1   1   1   1   1   1   
17	1   1   1   1   1   1   1   1   1   1   
18	1   1   1   1   1   1   1   1   1   1   
19	1   1   1   1   1   1   1   1   1   1   
20	1   1   1   1   1   1   1   1   1   1   
21	1   1   1   1   1   1   1   1   1   1   
22	1   1   1   1   1   1   1   1   1   1   
23	1   1   1   1   1   1   1   1   1   1   
24	1   1   1   1   1   1   1   1   1   1   
25	1   1   1   1   1   1   1   1   1   1   
26	1   1   1   1   1   1   1   1   1   1   
27	1   1   1   1   1   1   1   1   1   1   
28	1   1   1   1   1   1   1   1   1   1   
29	1   1   1   1   1   1   1   1   1   1   
30	1   1   1   1   1   1   1   1   1   1   
31	1   1   1   1   1   1   1   1   1   1   
32	1   1   1   1   1   1   1   1   1   1   
33	1   1   1   1   1   1   1   1   1   1   
34	1   1   1   1   1   1   1   1   1   1   
35	1   1   1   1   1   1   1   1   1   1   
36	1   1   1   1   1   1   1   1   1   1   
37	1   1   1   1   1   1   1   1   1   1   
38	1   1   1   1   1   1   1   1   1   1   
39	1   1   1   1   1   1   1   1   1   1   
40	1   1   1   1   1   1   1   1   1   1   
41	1   1   1   1   1   1   1   1   1   1   
42	1   1   1   1   1   1   1   1   1   1   
43	1   1   1   1   1   1   1   1   1   1   
44	1   1   1   1   1   1   1   1   1   1   
45	1   1   1   1   1   1   1   1   1   1   
; # availability of resorce k in time slot t

param B: 
	F1  F2  F3  :=
Q1	0   1   0   
Q2	0   0   0   
; # if front f requires resources of type q

param U: 
	F1  F2  F3  :=
K1	0   0   0   
K2	0   0   0   
K3	0   0   0   
K4	0   0   0   
K5	0   0   0   
K6	0   0   0   
K7	1   1   1   
K8	2   2   2   
K9	2   2   2   
K10	2   2   2   
; # transit time of resource

param C:= 
K1 900
K2 900
K3 900
K4 1500
K5 4500
K6 2100
K7 5500
K8 5500
K9 5500
K10 5500
; #  water capacity of resource k

param S:= 
F1 7
F2 7
F3 8
; # max number of resources that can fly at front f in the same time slot

param D:= 

[*,*,F1 ]:  K1    K2    K3    K4    K5    K6    K7    K8    K9    K10   :=
1           1.60  1.60  1.60  1.60  1.28  1.60  0.96  0.96  0.96  0.96  
2           1.60  1.60  1.60  1.60  1.28  1.60  0.96  0.96  0.96  0.96  
3           1.60  1.60  1.60  1.60  1.28  1.60  0.96  0.96  0.96  0.96  
4           1.60  1.60  1.60  1.60  1.28  1.60  0.96  0.96  0.96  0.96  
5           1.60  1.60  1.60  1.60  1.28  1.60  0.96  0.96  0.96  0.96  
6           1.60  1.60  1.60  1.60  1.28  1.60  0.96  0.96  0.96  0.96  
7           1.60  1.60  1.60  1.60  1.28  1.60  0.96  0.96  0.96  0.96  
8           1.60  1.60  1.60  1.60  1.28  1.60  0.96  0.96  0.96  0.96  
9           1.60  1.60  1.60  1.60  1.28  1.60  0.96  0.96  0.96  0.96  
10          1.60  1.60  1.60  1.60  1.28  1.60  0.96  0.96  0.96  0.96  
11          1.60  1.60  1.60  1.60  1.28  1.60  0.96  0.96  0.96  0.96  
12          1.60  1.60  1.60  1.60  1.28  1.60  0.96  0.96  0.96  0.96  
13          1.60  1.60  1.60  1.60  1.28  1.60  0.96  0.96  0.96  0.96  
14          1.60  1.60  1.60  1.60  1.28  1.60  0.96  0.96  0.96  0.96  
15          1.60  1.60  1.60  1.60  1.28  1.60  0.96  0.96  0.96  0.96  
16          1.60  1.60  1.60  1.60  1.28  1.60  0.96  0.96  0.96  0.96  
17          1.60  1.60  1.60  1.60  1.28  1.60  0.96  0.96  0.96  0.96  
18          1.60  1.60  1.60  1.60  1.28  1.60  0.96  0.96  0.96  0.96  
19          1.60  1.60  1.60  1.60  1.28  1.60  0.96  0.96  0.96  0.96  
20          1.60  1.60  1.60  1.60  1.28  1.60  0.96  0.96  0.96  0.96  
21          1.60  1.60  1.60  1.60  1.28  1.60  0.96  0.96  0.96  0.96  
22          1.60  1.60  1.60  1.60  1.28  1.60  0.96  0.96  0.96  0.96  
23          1.60  1.60  1.60  1.60  1.28  1.60  0.96  0.96  0.96  0.96  
24          1.60  1.60  1.60  1.60  1.28  1.60  0.96  0.96  0.96  0.96  
25          1.52  1.52  1.52  1.52  1.21  1.52  0.91  0.91  0.91  0.91  
26          1.52  1.52  1.52  1.52  1.21  1.52  0.91  0.91  0.91  0.91  
27          1.52  1.52  1.52  1.52  1.21  1.52  0.91  0.91  0.91  0.91  
28          1.52  1.52  1.52  1.52  1.21  1.52  0.91  0.91  0.91  0.91  
29          1.52  1.52  1.52  1.52  1.21  1.52  0.91  0.91  0.91  0.91  
30          1.52  1.52  1.52  1.52  1.21  1.52  0.91  0.91  0.91  0.91  
31          1.52  1.52  1.52  1.52  1.21  1.52  0.91  0.91  0.91  0.91  
32          1.52  1.52  1.52  1.52  1.21  1.52  0.91  0.91  0.91  0.91  
33          1.52  1.52  1.52  1.52  1.21  1.52  0.91  0.91  0.91  0.91  
34          1.60  1.60  1.60  1.60  1.28  1.60  0.96  0.96  0.96  0.96  
35          1.60  1.60  1.60  1.60  1.28  1.60  0.96  0.96  0.96  0.96  
36          1.60  1.60  1.60  1.60  1.28  1.60  0.96  0.96  0.96  0.96  
37          1.60  1.60  1.60  1.60  1.28  1.60  0.96  0.96  0.96  0.96  
38          1.60  1.60  1.60  1.60  1.28  1.60  0.96  0.96  0.96  0.96  
39          1.60  1.60  1.60  1.60  1.28  1.60  0.96  0.96  0.96  0.96  
40          1.60  1.60  1.60  1.60  1.28  1.60  0.96  0.96  0.96  0.96  
41          1.60  1.60  1.60  1.60  1.28  1.60  0.96  0.96  0.96  0.96  
42          1.60  1.60  1.60  1.60  1.28  1.60  0.96  0.96  0.96  0.96  
43          1.60  1.60  1.60  1.60  1.28  1.60  0.96  0.96  0.96  0.96  
44          1.60  1.60  1.60  1.60  1.28  1.60  0.96  0.96  0.96  0.96  
45          1.60  1.60  1.60  1.60  1.28  1.60  0.96  0.96  0.96  0.96  

[*,*,F2 ]:  K1    K2    K3    K4    K5    K6    K7    K8    K9    K10   :=
1           1.57  1.57  1.57  1.57  1.25  1.57  0.94  0.94  0.94  0.94  
2           1.57  1.57  1.57  1.57  1.25  1.57  0.94  0.94  0.94  0.94  
3           1.57  1.57  1.57  1.57  1.25  1.57  0.94  0.94  0.94  0.94  
4           1.57  1.57  1.57  1.57  1.25  1.57  0.94  0.94  0.94  0.94  
5           1.57  1.57  1.57  1.57  1.25  1.57  0.94  0.94  0.94  0.94  
6           1.57  1.57  1.57  1.57  1.25  1.57  0.94  0.94  0.94  0.94  
7           1.57  1.57  1.57  1.57  1.25  1.57  0.94  0.94  0.94  0.94  
8           1.57  1.57  1.57  1.57  1.25  1.57  0.94  0.94  0.94  0.94  
9           1.57  1.57  1.57  1.57  1.25  1.57  0.94  0.94  0.94  0.94  
10          1.57  1.57  1.57  1.57  1.25  1.57  0.94  0.94  0.94  0.94  
11          1.57  1.57  1.57  1.57  1.25  1.57  0.94  0.94  0.94  0.94  
12          1.57  1.57  1.57  1.57  1.25  1.57  0.94  0.94  0.94  0.94  
13          1.57  1.57  1.57  1.57  1.25  1.57  0.94  0.94  0.94  0.94  
14          1.57  1.57  1.57  1.57  1.25  1.57  0.94  0.94  0.94  0.94  
15          1.57  1.57  1.57  1.57  1.25  1.57  0.94  0.94  0.94  0.94  
16          1.57  1.57  1.57  1.57  1.25  1.57  0.94  0.94  0.94  0.94  
17          1.57  1.57  1.57  1.57  1.25  1.57  0.94  0.94  0.94  0.94  
18          1.57  1.57  1.57  1.57  1.25  1.57  0.94  0.94  0.94  0.94  
19          1.57  1.57  1.57  1.57  1.25  1.57  0.94  0.94  0.94  0.94  
20          1.57  1.57  1.57  1.57  1.25  1.57  0.94  0.94  0.94  0.94  
21          1.57  1.57  1.57  1.57  1.25  1.57  0.94  0.94  0.94  0.94  
22          1.57  1.57  1.57  1.57  1.25  1.57  0.94  0.94  0.94  0.94  
23          1.57  1.57  1.57  1.57  1.25  1.57  0.94  0.94  0.94  0.94  
24          1.57  1.57  1.57  1.57  1.25  1.57  0.94  0.94  0.94  0.94  
25          1.49  1.49  1.49  1.49  1.19  1.49  0.89  0.89  0.89  0.89  
26          1.49  1.49  1.49  1.49  1.19  1.49  0.89  0.89  0.89  0.89  
27          1.49  1.49  1.49  1.49  1.19  1.49  0.89  0.89  0.89  0.89  
28          1.49  1.49  1.49  1.49  1.19  1.49  0.89  0.89  0.89  0.89  
29          1.49  1.49  1.49  1.49  1.19  1.49  0.89  0.89  0.89  0.89  
30          1.49  1.49  1.49  1.49  1.19  1.49  0.89  0.89  0.89  0.89  
31          1.49  1.49  1.49  1.49  1.19  1.49  0.89  0.89  0.89  0.89  
32          1.49  1.49  1.49  1.49  1.19  1.49  0.89  0.89  0.89  0.89  
33          1.49  1.49  1.49  1.49  1.19  1.49  0.89  0.89  0.89  0.89  
34          1.57  1.57  1.57  1.57  1.25  1.57  0.94  0.94  0.94  0.94  
35          1.57  1.57  1.57  1.57  1.25  1.57  0.94  0.94  0.94  0.94  
36          1.57  1.57  1.57  1.57  1.25  1.57  0.94  0.94  0.94  0.94  
37          1.57  1.57  1.57  1.57  1.25  1.57  0.94  0.94  0.94  0.94  
38          1.57  1.57  1.57  1.57  1.25  1.57  0.94  0.94  0.94  0.94  
39          1.57  1.57  1.57  1.57  1.25  1.57  0.94  0.94  0.94  0.94  
40          1.57  1.57  1.57  1.57  1.25  1.57  0.94  0.94  0.94  0.94  
41          1.57  1.57  1.57  1.57  1.25  1.57  0.94  0.94  0.94  0.94  
42          1.57  1.57  1.57  1.57  1.25  1.57  0.94  0.94  0.94  0.94  
43          1.57  1.57  1.57  1.57  1.25  1.57  0.94  0.94  0.94  0.94  
44          1.57  1.57  1.57  1.57  1.25  1.57  0.94  0.94  0.94  0.94  
45          1.57  1.57  1.57  1.57  1.25  1.57  0.94  0.94  0.94  0.94  

[*,*,F3 ]:  K1    K2    K3    K4    K5    K6    K7    K8    K9    K10   :=
1           1.95  1.95  1.95  1.95  1.56  1.95  1.17  1.17  1.17  1.17  
2           1.95  1.95  1.95  1.95  1.56  1.95  1.17  1.17  1.17  1.17  
3           1.95  1.95  1.95  1.95  1.56  1.95  1.17  1.17  1.17  1.17  
4           1.95  1.95  1.95  1.95  1.56  1.95  1.17  1.17  1.17  1.17  
5           1.95  1.95  1.95  1.95  1.56  1.95  1.17  1.17  1.17  1.17  
6           1.95  1.95  1.95  1.95  1.56  1.95  1.17  1.17  1.17  1.17  
7           1.95  1.95  1.95  1.95  1.56  1.95  1.17  1.17  1.17  1.17  
8           1.95  1.95  1.95  1.95  1.56  1.95  1.17  1.17  1.17  1.17  
9           1.95  1.95  1.95  1.95  1.56  1.95  1.17  1.17  1.17  1.17  
10          1.95  1.95  1.95  1.95  1.56  1.95  1.17  1.17  1.17  1.17  
11          1.95  1.95  1.95  1.95  1.56  1.95  1.17  1.17  1.17  1.17  
12          1.95  1.95  1.95  1.95  1.56  1.95  1.17  1.17  1.17  1.17  
13          1.95  1.95  1.95  1.95  1.56  1.95  1.17  1.17  1.17  1.17  
14          1.95  1.95  1.95  1.95  1.56  1.95  1.17  1.17  1.17  1.17  
15          1.95  1.95  1.95  1.95  1.56  1.95  1.17  1.17  1.17  1.17  
16          1.95  1.95  1.95  1.95  1.56  1.95  1.17  1.17  1.17  1.17  
17          1.95  1.95  1.95  1.95  1.56  1.95  1.17  1.17  1.17  1.17  
18          1.95  1.95  1.95  1.95  1.56  1.95  1.17  1.17  1.17  1.17  
19          1.95  1.95  1.95  1.95  1.56  1.95  1.17  1.17  1.17  1.17  
20          1.95  1.95  1.95  1.95  1.56  1.95  1.17  1.17  1.17  1.17  
21          1.95  1.95  1.95  1.95  1.56  1.95  1.17  1.17  1.17  1.17  
22          1.95  1.95  1.95  1.95  1.56  1.95  1.17  1.17  1.17  1.17  
23          1.95  1.95  1.95  1.95  1.56  1.95  1.17  1.17  1.17  1.17  
24          1.95  1.95  1.95  1.95  1.56  1.95  1.17  1.17  1.17  1.17  
25          1.86  1.86  1.86  1.86  1.48  1.86  1.11  1.11  1.11  1.11  
26          1.86  1.86  1.86  1.86  1.48  1.86  1.11  1.11  1.11  1.11  
27          1.86  1.86  1.86  1.86  1.48  1.86  1.11  1.11  1.11  1.11  
28          1.86  1.86  1.86  1.86  1.48  1.86  1.11  1.11  1.11  1.11  
29          1.86  1.86  1.86  1.86  1.48  1.86  1.11  1.11  1.11  1.11  
30          1.86  1.86  1.86  1.86  1.48  1.86  1.11  1.11  1.11  1.11  
31          1.86  1.86  1.86  1.86  1.48  1.86  1.11  1.11  1.11  1.11  
32          1.86  1.86  1.86  1.86  1.48  1.86  1.11  1.11  1.11  1.11  
33          1.86  1.86  1.86  1.86  1.48  1.86  1.11  1.11  1.11  1.11  
34          1.95  1.95  1.95  1.95  1.56  1.95  1.17  1.17  1.17  1.17  
35          1.95  1.95  1.95  1.95  1.56  1.95  1.17  1.17  1.17  1.17  
36          1.95  1.95  1.95  1.95  1.56  1.95  1.17  1.17  1.17  1.17  
37          1.95  1.95  1.95  1.95  1.56  1.95  1.17  1.17  1.17  1.17  
38          1.95  1.95  1.95  1.95  1.56  1.95  1.17  1.17  1.17  1.17  
39          1.95  1.95  1.95  1.95  1.56  1.95  1.17  1.17  1.17  1.17  
40          1.95  1.95  1.95  1.95  1.56  1.95  1.17  1.17  1.17  1.17  
41          1.95  1.95  1.95  1.95  1.56  1.95  1.17  1.17  1.17  1.17  
42          1.95  1.95  1.95  1.95  1.56  1.95  1.17  1.17  1.17  1.17  
43          1.95  1.95  1.95  1.95  1.56  1.95  1.17  1.17  1.17  1.17  
44          1.95  1.95  1.95  1.95  1.56  1.95  1.17  1.17  1.17  1.17  
45          1.95  1.95  1.95  1.95  1.56  1.95  1.17  1.17  1.17  1.17  
; # downloads resource k can do at front f in time t if intermediate time slot

param E:= 

[*,*,F1 ]:  K1    K2    K3    K4    K5    K6    K7    K8    K9    K10   :=
1           0.46  0.63  0.48  0.66  0.04  0.34  0.45  0.03  0.19  0.11  
2           0.46  0.63  0.48  0.66  0.04  0.34  0.45  0.03  0.19  0.11  
3           0.46  0.63  0.48  0.66  0.04  0.34  0.45  0.03  0.19  0.11  
4           0.46  0.63  0.48  0.66  0.04  0.34  0.45  0.03  0.19  0.11  
5           0.46  0.63  0.48  0.66  0.04  0.34  0.45  0.03  0.19  0.11  
6           0.46  0.63  0.48  0.66  0.04  0.34  0.45  0.03  0.19  0.11  
7           0.46  0.63  0.48  0.66  0.04  0.34  0.45  0.03  0.19  0.11  
8           0.46  0.63  0.48  0.66  0.04  0.34  0.45  0.03  0.19  0.11  
9           0.46  0.63  0.48  0.66  0.04  0.34  0.45  0.03  0.19  0.11  
10          0.46  0.63  0.48  0.66  0.04  0.34  0.45  0.03  0.19  0.11  
11          0.46  0.63  0.48  0.66  0.04  0.34  0.45  0.03  0.19  0.11  
12          0.46  0.63  0.48  0.66  0.04  0.34  0.45  0.03  0.19  0.11  
13          0.46  0.63  0.48  0.66  0.04  0.34  0.45  0.03  0.19  0.11  
14          0.46  0.63  0.48  0.66  0.04  0.34  0.45  0.03  0.19  0.11  
15          0.46  0.63  0.48  0.66  0.04  0.34  0.45  0.03  0.19  0.11  
16          0.46  0.63  0.48  0.66  0.04  0.34  0.45  0.03  0.19  0.11  
17          0.46  0.63  0.48  0.66  0.04  0.34  0.45  0.03  0.19  0.11  
18          0.46  0.63  0.48  0.66  0.04  0.34  0.45  0.03  0.19  0.11  
19          0.46  0.63  0.48  0.66  0.04  0.34  0.45  0.03  0.19  0.11  
20          0.46  0.63  0.48  0.66  0.04  0.34  0.45  0.03  0.19  0.11  
21          0.46  0.63  0.48  0.66  0.04  0.34  0.45  0.03  0.19  0.11  
22          0.46  0.63  0.48  0.66  0.04  0.34  0.45  0.03  0.19  0.11  
23          0.46  0.63  0.48  0.66  0.04  0.34  0.45  0.03  0.19  0.11  
24          0.46  0.63  0.48  0.66  0.04  0.34  0.45  0.03  0.19  0.11  
25          0.44  0.59  0.46  0.62  0.04  0.32  0.43  0.03  0.18  0.10  
26          0.44  0.59  0.46  0.62  0.04  0.32  0.43  0.03  0.18  0.10  
27          0.44  0.59  0.46  0.62  0.04  0.32  0.43  0.03  0.18  0.10  
28          0.44  0.59  0.46  0.62  0.04  0.32  0.43  0.03  0.18  0.10  
29          0.44  0.59  0.46  0.62  0.04  0.32  0.43  0.03  0.18  0.10  
30          0.44  0.59  0.46  0.62  0.04  0.32  0.43  0.03  0.18  0.10  
31          0.44  0.59  0.46  0.62  0.04  0.32  0.43  0.03  0.18  0.10  
32          0.44  0.59  0.46  0.62  0.04  0.32  0.43  0.03  0.18  0.10  
33          0.44  0.59  0.46  0.62  0.04  0.32  0.43  0.03  0.18  0.10  
34          0.46  0.63  0.48  0.66  0.04  0.34  0.45  0.03  0.19  0.11  
35          0.46  0.63  0.48  0.66  0.04  0.34  0.45  0.03  0.19  0.11  
36          0.46  0.63  0.48  0.66  0.04  0.34  0.45  0.03  0.19  0.11  
37          0.46  0.63  0.48  0.66  0.04  0.34  0.45  0.03  0.19  0.11  
38          0.46  0.63  0.48  0.66  0.04  0.34  0.45  0.03  0.19  0.11  
39          0.46  0.63  0.48  0.66  0.04  0.34  0.45  0.03  0.19  0.11  
40          0.46  0.63  0.48  0.66  0.04  0.34  0.45  0.03  0.19  0.11  
41          0.46  0.63  0.48  0.66  0.04  0.34  0.45  0.03  0.19  0.11  
42          0.46  0.63  0.48  0.66  0.04  0.34  0.45  0.03  0.19  0.11  
43          0.46  0.63  0.48  0.66  0.04  0.34  0.45  0.03  0.19  0.11  
44          0.46  0.63  0.48  0.66  0.04  0.34  0.45  0.03  0.19  0.11  
45          0.46  0.63  0.48  0.66  0.04  0.34  0.45  0.03  0.19  0.11  

[*,*,F2 ]:  K1    K2    K3    K4    K5    K6    K7    K8    K9    K10   :=
1           0.30  0.60  0.53  0.72  0.08  0.39  0.52  0.07  0.11  0.17  
2           0.30  0.60  0.53  0.72  0.08  0.39  0.52  0.07  0.11  0.17  
3           0.30  0.60  0.53  0.72  0.08  0.39  0.52  0.07  0.11  0.17  
4           0.30  0.60  0.53  0.72  0.08  0.39  0.52  0.07  0.11  0.17  
5           0.30  0.60  0.53  0.72  0.08  0.39  0.52  0.07  0.11  0.17  
6           0.30  0.60  0.53  0.72  0.08  0.39  0.52  0.07  0.11  0.17  
7           0.30  0.60  0.53  0.72  0.08  0.39  0.52  0.07  0.11  0.17  
8           0.30  0.60  0.53  0.72  0.08  0.39  0.52  0.07  0.11  0.17  
9           0.30  0.60  0.53  0.72  0.08  0.39  0.52  0.07  0.11  0.17  
10          0.30  0.60  0.53  0.72  0.08  0.39  0.52  0.07  0.11  0.17  
11          0.30  0.60  0.53  0.72  0.08  0.39  0.52  0.07  0.11  0.17  
12          0.30  0.60  0.53  0.72  0.08  0.39  0.52  0.07  0.11  0.17  
13          0.30  0.60  0.53  0.72  0.08  0.39  0.52  0.07  0.11  0.17  
14          0.30  0.60  0.53  0.72  0.08  0.39  0.52  0.07  0.11  0.17  
15          0.30  0.60  0.53  0.72  0.08  0.39  0.52  0.07  0.11  0.17  
16          0.30  0.60  0.53  0.72  0.08  0.39  0.52  0.07  0.11  0.17  
17          0.30  0.60  0.53  0.72  0.08  0.39  0.52  0.07  0.11  0.17  
18          0.30  0.60  0.53  0.72  0.08  0.39  0.52  0.07  0.11  0.17  
19          0.30  0.60  0.53  0.72  0.08  0.39  0.52  0.07  0.11  0.17  
20          0.30  0.60  0.53  0.72  0.08  0.39  0.52  0.07  0.11  0.17  
21          0.30  0.60  0.53  0.72  0.08  0.39  0.52  0.07  0.11  0.17  
22          0.30  0.60  0.53  0.72  0.08  0.39  0.52  0.07  0.11  0.17  
23          0.30  0.60  0.53  0.72  0.08  0.39  0.52  0.07  0.11  0.17  
24          0.30  0.60  0.53  0.72  0.08  0.39  0.52  0.07  0.11  0.17  
25          0.28  0.57  0.51  0.69  0.07  0.37  0.49  0.06  0.11  0.16  
26          0.28  0.57  0.51  0.69  0.07  0.37  0.49  0.06  0.11  0.16  
27          0.28  0.57  0.51  0.69  0.07  0.37  0.49  0.06  0.11  0.16  
28          0.28  0.57  0.51  0.69  0.07  0.37  0.49  0.06  0.11  0.16  
29          0.28  0.57  0.51  0.69  0.07  0.37  0.49  0.06  0.11  0.16  
30          0.28  0.57  0.51  0.69  0.07  0.37  0.49  0.06  0.11  0.16  
31          0.28  0.57  0.51  0.69  0.07  0.37  0.49  0.06  0.11  0.16  
32          0.28  0.57  0.51  0.69  0.07  0.37  0.49  0.06  0.11  0.16  
33          0.28  0.57  0.51  0.69  0.07  0.37  0.49  0.06  0.11  0.16  
34          0.30  0.60  0.53  0.72  0.08  0.39  0.52  0.07  0.11  0.17  
35          0.30  0.60  0.53  0.72  0.08  0.39  0.52  0.07  0.11  0.17  
36          0.30  0.60  0.53  0.72  0.08  0.39  0.52  0.07  0.11  0.17  
37          0.30  0.60  0.53  0.72  0.08  0.39  0.52  0.07  0.11  0.17  
38          0.30  0.60  0.53  0.72  0.08  0.39  0.52  0.07  0.11  0.17  
39          0.30  0.60  0.53  0.72  0.08  0.39  0.52  0.07  0.11  0.17  
40          0.30  0.60  0.53  0.72  0.08  0.39  0.52  0.07  0.11  0.17  
41          0.30  0.60  0.53  0.72  0.08  0.39  0.52  0.07  0.11  0.17  
42          0.30  0.60  0.53  0.72  0.08  0.39  0.52  0.07  0.11  0.17  
43          0.30  0.60  0.53  0.72  0.08  0.39  0.52  0.07  0.11  0.17  
44          0.30  0.60  0.53  0.72  0.08  0.39  0.52  0.07  0.11  0.17  
45          0.30  0.60  0.53  0.72  0.08  0.39  0.52  0.07  0.11  0.17  

[*,*,F3 ]:  K1    K2    K3    K4    K5    K6    K7    K8    K9    K10   :=
1           0.47  0.80  0.51  0.98  0.06  0.31  0.64  0.12  0.20  0.20  
2           0.47  0.80  0.51  0.98  0.06  0.31  0.64  0.12  0.20  0.20  
3           0.47  0.80  0.51  0.98  0.06  0.31  0.64  0.12  0.20  0.20  
4           0.47  0.80  0.51  0.98  0.06  0.31  0.64  0.12  0.20  0.20  
5           0.47  0.80  0.51  0.98  0.06  0.31  0.64  0.12  0.20  0.20  
6           0.47  0.80  0.51  0.98  0.06  0.31  0.64  0.12  0.20  0.20  
7           0.47  0.80  0.51  0.98  0.06  0.31  0.64  0.12  0.20  0.20  
8           0.47  0.80  0.51  0.98  0.06  0.31  0.64  0.12  0.20  0.20  
9           0.47  0.80  0.51  0.98  0.06  0.31  0.64  0.12  0.20  0.20  
10          0.47  0.80  0.51  0.98  0.06  0.31  0.64  0.12  0.20  0.20  
11          0.47  0.80  0.51  0.98  0.06  0.31  0.64  0.12  0.20  0.20  
12          0.47  0.80  0.51  0.98  0.06  0.31  0.64  0.12  0.20  0.20  
13          0.47  0.80  0.51  0.98  0.06  0.31  0.64  0.12  0.20  0.20  
14          0.47  0.80  0.51  0.98  0.06  0.31  0.64  0.12  0.20  0.20  
15          0.47  0.80  0.51  0.98  0.06  0.31  0.64  0.12  0.20  0.20  
16          0.47  0.80  0.51  0.98  0.06  0.31  0.64  0.12  0.20  0.20  
17          0.47  0.80  0.51  0.98  0.06  0.31  0.64  0.12  0.20  0.20  
18          0.47  0.80  0.51  0.98  0.06  0.31  0.64  0.12  0.20  0.20  
19          0.47  0.80  0.51  0.98  0.06  0.31  0.64  0.12  0.20  0.20  
20          0.47  0.80  0.51  0.98  0.06  0.31  0.64  0.12  0.20  0.20  
21          0.47  0.80  0.51  0.98  0.06  0.31  0.64  0.12  0.20  0.20  
22          0.47  0.80  0.51  0.98  0.06  0.31  0.64  0.12  0.20  0.20  
23          0.47  0.80  0.51  0.98  0.06  0.31  0.64  0.12  0.20  0.20  
24          0.47  0.80  0.51  0.98  0.06  0.31  0.64  0.12  0.20  0.20  
25          0.45  0.76  0.48  0.93  0.06  0.30  0.61  0.11  0.19  0.19  
26          0.45  0.76  0.48  0.93  0.06  0.30  0.61  0.11  0.19  0.19  
27          0.45  0.76  0.48  0.93  0.06  0.30  0.61  0.11  0.19  0.19  
28          0.45  0.76  0.48  0.93  0.06  0.30  0.61  0.11  0.19  0.19  
29          0.45  0.76  0.48  0.93  0.06  0.30  0.61  0.11  0.19  0.19  
30          0.45  0.76  0.48  0.93  0.06  0.30  0.61  0.11  0.19  0.19  
31          0.45  0.76  0.48  0.93  0.06  0.30  0.61  0.11  0.19  0.19  
32          0.45  0.76  0.48  0.93  0.06  0.30  0.61  0.11  0.19  0.19  
33          0.45  0.76  0.48  0.93  0.06  0.30  0.61  0.11  0.19  0.19  
34          0.47  0.80  0.51  0.98  0.06  0.31  0.64  0.12  0.20  0.20  
35          0.47  0.80  0.51  0.98  0.06  0.31  0.64  0.12  0.20  0.20  
36          0.47  0.80  0.51  0.98  0.06  0.31  0.64  0.12  0.20  0.20  
37          0.47  0.80  0.51  0.98  0.06  0.31  0.64  0.12  0.20  0.20  
38          0.47  0.80  0.51  0.98  0.06  0.31  0.64  0.12  0.20  0.20  
39          0.47  0.80  0.51  0.98  0.06  0.31  0.64  0.12  0.20  0.20  
40          0.47  0.80  0.51  0.98  0.06  0.31  0.64  0.12  0.20  0.20  
41          0.47  0.80  0.51  0.98  0.06  0.31  0.64  0.12  0.20  0.20  
42          0.47  0.80  0.51  0.98  0.06  0.31  0.64  0.12  0.20  0.20  
43          0.47  0.80  0.51  0.98  0.06  0.31  0.64  0.12  0.20  0.20  
44          0.47  0.80  0.51  0.98  0.06  0.31  0.64  0.12  0.20  0.20  
45          0.47  0.80  0.51  0.98  0.06  0.31  0.64  0.12  0.20  0.20  
; # downloads resource k can do at front f in time t if starting or ending flight

param W: 
	F1        F2        F3        :=
1	516.02    516.02    516.02    
2	2064.08   2064.08   2064.08   
3	2064.08   2064.08   2064.08   
4	2064.08   2064.08   2064.08   
5	2064.08   2064.08   2064.08   
6	2064.08   2064.08   2064.08   
7	2064.08   2064.08   2064.08   
8	2064.08   2064.08   2064.08   
9	2064.08   2064.08   2064.08   
10	2064.08   2064.08   2064.08   
11	2064.08   2064.08   2064.08   
12	2064.08   2064.08   2064.08   
13	2064.08   2064.08   2064.08   
14	2064.08   2064.08   2064.08   
15	2064.08   2064.08   2064.08   
16	2064.08   2064.08   2064.08   
17	2064.08   2064.08   2064.08   
18	2064.08   2064.08   2064.08   
19	2064.08   2064.08   2064.08   
20	2064.08   2064.08   2064.08   
21	2064.08   2064.08   2064.08   
22	2064.08   2064.08   2064.08   
23	2064.08   2064.08   2064.08   
24	2064.08   2064.08   2064.08   
25	2064.08   2064.08   2064.08   
26	2064.08   2064.08   2064.08   
27	2064.08   2064.08   2064.08   
28	2064.08   2064.08   2064.08   
29	2064.08   2064.08   2064.08   
30	2064.08   2064.08   2064.08   
31	2064.08   2064.08   2064.08   
32	2064.08   2064.08   2064.08   
33	2064.08   2064.08   2064.08   
34	2064.08   2064.08   2064.08   
35	2064.08   2064.08   2064.08   
36	2064.08   2064.08   2064.08   
37	2064.08   2064.08   2064.08   
38	2064.08   2064.08   2064.08   
39	2064.08   2064.08   2064.08   
40	2064.08   2064.08   2064.08   
41	2064.08   2064.08   2064.08   
42	2064.08   2064.08   2064.08   
43	2064.08   2064.08   2064.08   
44	2064.08   2064.08   2064.08   
45	516.02    516.02    516.02    
; # water needed at front f in time slot t

param M := 100000000; 

param a1:= 10000000;

param a2:= 100;

param a3:= 0.0001;
